include         pot
pair_style	hybrid/overlay eam/alloy zbl 1.4 1.8 zbl 0.9 1.50 zbl 0.20 0.35
pair_coeff   * * eam/alloy WHff.eam.alloy W H
pair_coeff  1 1 zbl 1 74.0 74.0
pair_coeff  2 2 zbl 3 1.0  1.0
pair_coeff	1 2 zbl 2 74.0 1.0
mass 1 1.83840E+02
mass 2 1.00794E+00



thermo          100
thermo_style    custom step time dt temp
variable        DT equal dt
variable        TEM equal temp
variable        TEMP_DT equal ${DT}*100
variable        TEMP_DT equal 0.001*100
compute         1 all pe/atom
compute         2 all voronoi/atom occupation
compute         3 all ke/atom


shell           mkdir dump/${env_temp}K_${E_PKA}KeV_[${d_x}${d_y}${d_z}]_${random}
shell           mkdir dump/300K_${E_PKA}KeV_[${d_x}${d_y}${d_z}]_${random}
shell           mkdir dump/300K_150KeV_[${d_x}${d_y}${d_z}]_${random}
shell           mkdir dump/300K_150KeV_[0${d_y}${d_z}]_${random}
shell           mkdir dump/300K_150KeV_[00${d_z}]_${random}
shell           mkdir dump/300K_150KeV_[00-1]_${random}
shell           mkdir dump/300K_150KeV_[00-1]_1
write_dump      all custom dump/${env_temp}K_${E_PKA}KeV_[${d_x}${d_y}${d_z}]_${random}/ref.dump id type x y z
write_dump      all custom dump/300K_${E_PKA}KeV_[${d_x}${d_y}${d_z}]_${random}/ref.dump id type x y z
write_dump      all custom dump/300K_150KeV_[${d_x}${d_y}${d_z}]_${random}/ref.dump id type x y z
write_dump      all custom dump/300K_150KeV_[0${d_y}${d_z}]_${random}/ref.dump id type x y z
write_dump      all custom dump/300K_150KeV_[00${d_z}]_${random}/ref.dump id type x y z
write_dump      all custom dump/300K_150KeV_[00-1]_${random}/ref.dump id type x y z
write_dump      all custom dump/300K_150KeV_[00-1]_1/ref.dump id type x y z
WARNING: Calling write_dump before a full system init. (../write_dump.cpp:81)

# run
fix             FIXATOMS FIX setforce 0.0 0.0 0.0
# bath
velocity        NO_FIX create ${tem_cv} ${random} dist gaussian mom yes rot yes
velocity        NO_FIX create 600 ${random} dist gaussian mom yes rot yes
velocity        NO_FIX create 600 1 dist gaussian mom yes rot yes
fix             1 all nvt temp ${env_temp} ${env_temp} 0.01 drag 0.2
fix             1 all nvt temp 300 ${env_temp} 0.01 drag 0.2
fix             1 all nvt temp 300 300 0.01 drag 0.2
timestep        0.0005
run             2000
Neighbor list info ...
  update every 1 steps, delay 10 steps, check yes
  max neighbors/atom: 2000, page size: 100000
  master list distance cutoff = 7.7
  ghost atom cutoff = 7.7
  binsize = 3.85, bins = 107 107 107
  4 neighbor lists, perpetual/occasional/extra = 4 0 0
  (1) pair eam/alloy, perpetual
      attributes: half, newton on
      pair build: half/bin/atomonly/newton
      stencil: half/bin/3d/newton
      bin: standard
  (2) pair zbl, perpetual, skip from (1)
      attributes: half, newton on
      pair build: skip
      stencil: none
      bin: none
  (3) pair zbl, perpetual, skip from (1)
      attributes: half, newton on
      pair build: skip
      stencil: none
      bin: none
  (4) pair zbl, perpetual, skip from (1)
      attributes: half, newton on
      pair build: skip
      stencil: none
      bin: none
Per MPI rank memory allocation (min/avg/max) = 55.9 | 56.61 | 56.66 Mbytes
Step Time Dt Temp 
       0            0       0.0005    552.85739 
     100         0.05       0.0005    166.75991 
     200          0.1       0.0005    300.05934 
     300         0.15       0.0005    309.49723 
     400          0.2       0.0005      287.652 
     500         0.25       0.0005    295.74896 
     600          0.3       0.0005    293.31721 
     700         0.35       0.0005    305.09451 
     800          0.4       0.0005    298.83845 
     900         0.45       0.0005    299.25333 
    1000          0.5       0.0005    299.43067 
    1100         0.55       0.0005    300.56852 
    1200          0.6       0.0005    299.82809 
    1300         0.65       0.0005    299.81544 
    1400          0.7       0.0005    300.31779 
    1500         0.75       0.0005    299.10088 
    1600          0.8       0.0005     300.9155 
    1700         0.85       0.0005    299.62544 
    1800          0.9       0.0005    299.55852 
    1900         0.95       0.0005    300.71784 
    2000            1       0.0005    299.54351 
Loop time of 285.484 on 112 procs for 2000 steps with 4394000 atoms

Performance: 0.303 ns/day, 79.301 hours/ns, 7.006 timesteps/s
99.4% CPU use with 112 MPI tasks x no OpenMP threads

MPI task timing breakdown:
Section |  min time  |  avg time  |  max time  |%varavg| %total
---------------------------------------------------------------
Pair    | 198.41     | 217.95     | 267.1      | 174.9 | 76.35
Neigh   | 0          | 0          | 0          |   0.0 |  0.00
Comm    | 5.3436     | 52.984     | 71.394     | 350.4 | 18.56
Output  | 0.0076497  | 0.01171    | 0.01355    |   1.0 |  0.00
Modify  | 6.4981     | 8.747      | 11.837     |  44.6 |  3.06
Other   |            | 5.787      |            |       |  2.03

Nlocal:    39232.1 ave 40147 max 39058 min
Histogram: 96 0 0 0 0 0 0 0 0 16
Nghost:    25110.9 ave 25285 max 24196 min
Histogram: 16 0 0 0 0 0 0 0 0 96
Neighs:    2.66779e+06 ave 2.71465e+06 max 2.64136e+06 min
Histogram: 8 24 36 12 12 4 0 0 0 16

Total # of neighbors = 298792000
Ave neighs/atom = 68
Neighbor list builds = 0
Dangerous builds = 0
unfix           1

# incident
reset_timestep  0
velocity        CENTER set ${vx} ${vy} ${vz} sum yes units box    # adjust here if change direction of PKA
velocity        CENTER set 0 ${vy} ${vz} sum yes units box    
velocity        CENTER set 0 0 ${vz} sum yes units box    
velocity        CENTER set 0 0 -3972.75343188134 sum yes units box    
fix             1 BATH nvt temp ${env_temp} ${env_temp} ${TEMP_DT} drag 0.2
fix             1 BATH nvt temp 300 ${env_temp} ${TEMP_DT} drag 0.2
fix             1 BATH nvt temp 300 300 ${TEMP_DT} drag 0.2
fix             1 BATH nvt temp 300 300 0.1 drag 0.2
fix             2 FREE nve
dump            1 all custom 100 dump/${env_temp}K_${E_PKA}KeV_[${d_x}${d_y}${d_z}]_${random}/lammps_iv.dump id type c_2[1]
dump            1 all custom 100 dump/300K_${E_PKA}KeV_[${d_x}${d_y}${d_z}]_${random}/lammps_iv.dump id type c_2[1]
dump            1 all custom 100 dump/300K_150KeV_[${d_x}${d_y}${d_z}]_${random}/lammps_iv.dump id type c_2[1]
dump            1 all custom 100 dump/300K_150KeV_[0${d_y}${d_z}]_${random}/lammps_iv.dump id type c_2[1]
dump            1 all custom 100 dump/300K_150KeV_[00${d_z}]_${random}/lammps_iv.dump id type c_2[1]
dump            1 all custom 100 dump/300K_150KeV_[00-1]_${random}/lammps_iv.dump id type c_2[1]
dump            1 all custom 100 dump/300K_150KeV_[00-1]_1/lammps_iv.dump id type c_2[1]
dump_modify     1 thresh c_2[1] != 1
dump            2 all custom 100 dump/${env_temp}K_${E_PKA}KeV_[${d_x}${d_y}${d_z}]_${random}/lammps_2i.dump id type x y z
dump            2 all custom 100 dump/300K_${E_PKA}KeV_[${d_x}${d_y}${d_z}]_${random}/lammps_2i.dump id type x y z
dump            2 all custom 100 dump/300K_150KeV_[${d_x}${d_y}${d_z}]_${random}/lammps_2i.dump id type x y z
dump            2 all custom 100 dump/300K_150KeV_[0${d_y}${d_z}]_${random}/lammps_2i.dump id type x y z
dump            2 all custom 100 dump/300K_150KeV_[00${d_z}]_${random}/lammps_2i.dump id type x y z
dump            2 all custom 100 dump/300K_150KeV_[00-1]_${random}/lammps_2i.dump id type x y z
dump            2 all custom 100 dump/300K_150KeV_[00-1]_1/lammps_2i.dump id type x y z
dump_modify     2 thresh c_2[2] > 1
dump            3 all custom 100 dump/${env_temp}K_${E_PKA}KeV_[${d_x}${d_y}${d_z}]_${random}/high_pe.dump id type x y z c_1
dump            3 all custom 100 dump/300K_${E_PKA}KeV_[${d_x}${d_y}${d_z}]_${random}/high_pe.dump id type x y z c_1
dump            3 all custom 100 dump/300K_150KeV_[${d_x}${d_y}${d_z}]_${random}/high_pe.dump id type x y z c_1
dump            3 all custom 100 dump/300K_150KeV_[0${d_y}${d_z}]_${random}/high_pe.dump id type x y z c_1
dump            3 all custom 100 dump/300K_150KeV_[00${d_z}]_${random}/high_pe.dump id type x y z c_1
dump            3 all custom 100 dump/300K_150KeV_[00-1]_${random}/high_pe.dump id type x y z c_1
dump            3 all custom 100 dump/300K_150KeV_[00-1]_1/high_pe.dump id type x y z c_1
dump_modify     3 thresh c_1 > -8.6
dump            4 all custom 1000 dump/${env_temp}K_${E_PKA}KeV_[${d_x}${d_y}${d_z}]_${random}/all.dump id type x y z c_1
dump            4 all custom 1000 dump/300K_${E_PKA}KeV_[${d_x}${d_y}${d_z}]_${random}/all.dump id type x y z c_1
dump            4 all custom 1000 dump/300K_150KeV_[${d_x}${d_y}${d_z}]_${random}/all.dump id type x y z c_1
dump            4 all custom 1000 dump/300K_150KeV_[0${d_y}${d_z}]_${random}/all.dump id type x y z c_1
dump            4 all custom 1000 dump/300K_150KeV_[00${d_z}]_${random}/all.dump id type x y z c_1
dump            4 all custom 1000 dump/300K_150KeV_[00-1]_${random}/all.dump id type x y z c_1
dump            4 all custom 1000 dump/300K_150KeV_[00-1]_1/all.dump id type x y z c_1
fix             3 all dt/reset 10 NULL NULL 0.01 units box
fix             4 all halt 10 v_DT > ${halt_dt} error continue         # adjust here for end criterion
fix             4 all halt 10 v_DT > 0.0011 error continue         
run             100000000
Neighbor list info ...
  update every 1 steps, delay 10 steps, check yes
  max neighbors/atom: 2000, page size: 100000
  master list distance cutoff = 7.7
  ghost atom cutoff = 7.7
  binsize = 3.85, bins = 107 107 107
  4 neighbor lists, perpetual/occasional/extra = 4 0 0
  (1) pair eam/alloy, perpetual
      attributes: half, newton on
      pair build: half/bin/atomonly/newton
      stencil: half/bin/3d/newton
      bin: standard
  (2) pair zbl, perpetual, skip from (1)
      attributes: half, newton on
      pair build: skip
      stencil: none
      bin: none
  (3) pair zbl, perpetual, skip from (1)
      attributes: half, newton on
      pair build: skip
      stencil: none
      bin: none
  (4) pair zbl, perpetual, skip from (1)
      attributes: half, newton on
      pair build: skip
      stencil: none
      bin: none
Per MPI rank memory allocation (min/avg/max) = 64.73 | 65.26 | 66.26 Mbytes
Step Time Dt Temp 
       0            1 2.5177017e-06    564.15907 
     100    1.0002518 2.5177756e-06    564.13044 
     200    1.0005036 2.5194701e-06     563.7613 
     300    1.0007609 3.2680244e-06    472.44863 
     400    1.0010871 3.0615477e-06    563.80979 
     500    1.0013932 3.0622516e-06    563.67903 
     600    1.0016995 3.0620582e-06    562.10598 
     700    1.0020056 3.061173e-06    558.15071 
     800    1.0023119 3.0643207e-06    562.83184 
     900    1.0026182 3.061253e-06    563.77847 
    1000    1.0029243 3.0614533e-06    563.65355 
    1100    1.0032305 3.0620306e-06    563.58104 
    1200     1.003537 3.0726679e-06    562.40309 
    1300    1.0038441 3.0641055e-06    563.29354 
    1400    1.0041504 3.0710614e-06    562.23208 
    1500    1.0044614 3.1190576e-06    558.32588 
    1600    1.0047705 3.078368e-06    563.58208 
    1700    1.0050784 3.0806019e-06    563.31246 
    1800    1.0053865 3.0801042e-06    563.36828 
    1900    1.0056945 3.0873423e-06    561.63457 
    2000    1.0060284 3.7883409e-06    536.84435 
    2100    1.0063953 3.6361763e-06    562.76385 
    2200    1.0067595 3.6547593e-06    561.62566 
    2300    1.0071248 3.6431327e-06    557.28762 
    2400    1.0074891 3.6443207e-06    561.15035 
    2500    1.0078533 3.6389522e-06    562.75746 
    2600    1.0082182 3.7072213e-06    558.09986 
    2700    1.0086102 3.8928761e-06    559.97101 
    2800    1.0089972 3.8623668e-06    561.96039 
    2900    1.0093839 3.8763302e-06    561.02521 
    3000    1.0097717 3.8701559e-06    561.77842 
    3100    1.0101586 3.8832706e-06    561.77822 
    3200    1.0105512 3.9223858e-06    559.96813 
    3300    1.0109407 3.8823121e-06    560.70821 
    3400     1.011329 3.8862176e-06    555.39716 
    3500    1.0117178 3.8864773e-06    561.24614 
    3600    1.0121062 3.8827385e-06    562.47952 
    3700    1.0124945 3.8823542e-06    562.13754 
    3800    1.0128832 3.9004894e-06    561.17379 
    3900    1.0132741 3.8981333e-06    561.76533 
    4000    1.0136631 3.8861563e-06     561.8194 
    4100     1.014053 3.942696e-06    558.79167 
    4200    1.0144485 3.9186469e-06    561.02457 
    4300    1.0148396 3.9139924e-06    550.90088 
    4400    1.0152325 3.9297612e-06    557.03438 
    4500    1.0156241 3.9082172e-06    558.67442 
    4600    1.0160154 3.9288327e-06    558.10085 
    4700    1.0164099 3.9316604e-06    558.93694 
    4800    1.0168018 3.9141475e-06    558.42373 
    4900    1.0171933 3.915618e-06    555.51454 
    5000     1.017585 3.9213739e-06    555.19962 
    5100    1.0179778 3.9261684e-06     559.2824 
    5200    1.0183697 3.9154049e-06    559.49632 
    5300    1.0187614 3.921971e-06    556.32934 
    5400    1.0191538 3.9198812e-06    550.12971 
    5500    1.0195459 3.9415869e-06    556.03302 
    5600    1.0199521 4.0854455e-06     551.2279 
    5700    1.0203551 4.0084623e-06    538.26072 
    5800    1.0207568 4.0668644e-06    556.80651 
    5900    1.0211972 4.4670994e-06    557.58082 
    6000    1.0216398 4.4118485e-06    559.95899 
    6100    1.0220811 4.4139356e-06    558.01375 
    6200    1.0225228 4.436829e-06    557.33203 
    6300    1.0229907 4.9079489e-06    551.48633 
    6400    1.0234688 4.7353945e-06    559.22527 
    6500    1.0239435 4.7767503e-06    556.54748 
    6600    1.0244208 4.7488599e-06    553.69564 
    6700    1.0248951 4.7466755e-06    549.66904 
    6800    1.0253715 4.7747186e-06     552.7654 
    6900    1.0258473 4.7472677e-06    555.20555 
    7000    1.0263272 5.0811842e-06    547.28132 
    7100    1.0268604 5.2316176e-06    552.54764 
    7200    1.0273822 5.2171072e-06    556.12008 
    7300     1.027904 5.2166329e-06    554.81291 
    7400    1.0284277 5.3591822e-06    551.23378 
    7500    1.0290371 6.3369019e-06     553.8191 
    7600    1.0296629 6.2359439e-06    544.03619 
    7700    1.0302871 6.2600685e-06    551.67569 
    7800     1.030914 6.2578798e-06    553.13184 
    7900    1.0315388 6.2504028e-06    547.00899 
    8000    1.0321642 6.2491295e-06     548.0475 
    8100    1.0327891 6.2598111e-06    552.55016 
    8200    1.0334154 6.2561427e-06    545.09437 
    8300    1.0340405 6.2504991e-06    547.59731 
    8400    1.0346702 6.4410441e-06    549.13746 
    8500    1.0353155 6.3602161e-06     550.3575 
    8600    1.0359497 6.3455707e-06    547.29997 
    8700    1.0365848 6.3457767e-06    543.73208 
    8800    1.0372186 6.3370547e-06     543.1779 
    8900     1.037861 6.9131023e-06    541.30208 
    9000    1.0385623 6.9737547e-06    548.33633 
    9100    1.0392616 7.1796332e-06     542.9394 
    9200    1.0400475 8.1365863e-06    545.03351 
    9300    1.0408515 7.9674948e-06    548.73504 
    9400    1.0416483 7.981185e-06    548.55099 
    9500     1.042448 7.9972854e-06    546.54941 
    9600     1.043246 7.9713462e-06    546.36466 
    9700    1.0440434 7.9733734e-06    544.36082 
    9800    1.0448421 8.0722305e-06    542.21208 
    9900     1.045703 9.057327e-06    542.72214 
   10000    1.0465894 8.7798879e-06    542.89981 
   10100    1.0474714 8.884785e-06    538.68035 
   10200    1.0483579 8.8253268e-06    542.89583 
   10300    1.0492415 8.8424314e-06      543.625 
   10400    1.0501236 8.8051001e-06    544.09611 
   10500    1.0510081 8.9441474e-06    541.72755 
   10600    1.0519043 8.8948112e-06    541.17763 
   10700    1.0527907 8.8610936e-06    536.97313 
   10800    1.0536802 8.9224625e-06    537.74783 
   10900    1.0545698 8.8909716e-06    541.34085 
   11000    1.0555209 1.2327584e-05    531.06959 
   11100    1.0566846 1.1069627e-05    538.36843 
   11200    1.0577948 1.1227233e-05    535.75164 
   11300    1.0589289 1.1297419e-05     532.9491 
   11400    1.0600507 1.1198486e-05    531.65873 
   11500    1.0611805 1.1436651e-05    533.25332 
   11600    1.0623178 1.1271434e-05    533.43202 
   11700     1.063444 1.1262583e-05    532.85812 
   11800    1.0645701 1.1294184e-05    533.83461 
   11900    1.0657701 1.375386e-05     523.9287 
   12000    1.0671537 1.3931515e-05    529.01089 
   12100    1.0685363 1.3767184e-05    529.80403 
   12200    1.0699166 1.3782778e-05    527.26513 
   12300    1.0712946 1.3928029e-05    527.44649 
   12400    1.0727194 1.4329802e-05    525.02577 
   12500    1.0741363 1.4128854e-05     525.8861 
   12600    1.0755516 1.4243688e-05    522.66097 
   12700    1.0769925 1.4408916e-05    523.87377 
   12800    1.0784213 1.4231731e-05    524.80804 
   12900    1.0798454 1.4245423e-05    517.01991 
   13000    1.0812842 1.4820061e-05    518.22458 
   13100    1.0827854 1.4830035e-05    519.27591 
   13200    1.0842661 1.4838911e-05    516.17468 
   13300    1.0857634 1.5416261e-05    512.41289 
   13400    1.0873163 1.5307418e-05    513.50186 
   13500    1.0888518 1.5508166e-05    513.21422 
   13600    1.0903959 1.5326332e-05    511.67104 
   13700    1.0919431 1.5753728e-05    509.64237 
   13800    1.0935135 1.5531512e-05    508.10039 
   13900    1.0950676 1.5796919e-05    505.94621 
   14000    1.0968382 1.9789558e-05    505.86555 
   14100    1.0988074 1.9836024e-05     505.6127 
   14200    1.1007958 2.009538e-05    500.53331 
   14300    1.1029556 2.2764517e-05    497.19243 
   14400    1.1052795 2.3441044e-05    495.42844 
   14500    1.1075971 2.3113323e-05    494.80533 
   14600    1.1099231 2.3346787e-05    492.53751 
   14700    1.1122546 2.3677758e-05    487.93725 
   14800    1.1147344 2.533796e-05    488.06267 
   14900    1.1172461 2.5124567e-05    486.01369 
   15000    1.1197538 2.5178697e-05     482.3563 
   15100    1.1222748 2.525199e-05    479.84927 
   15200    1.1248374 2.6942388e-05     476.7384 
   15300    1.1277096 2.8787152e-05    476.56036 
   15400     1.130579 2.9238444e-05    474.33973 
   15500     1.133581 3.0305113e-05    470.25458 
   15600    1.1365869 3.0034904e-05    467.47325 
   15700    1.1396581 3.1418116e-05    464.48887 
   15800    1.1427738 3.0958817e-05    461.70642 
   15900    1.1460434 3.6029631e-05    459.18132 
   16000    1.1496583 3.6784059e-05    456.88884 
   16100     1.153346 3.7004506e-05    454.43334 
   16200    1.1571585 3.9148951e-05    450.81602 
   16300    1.1613457 4.3988027e-05     447.1353 
   16400    1.1657158 4.4833548e-05    444.23271 
   16500     1.170357 4.6807922e-05    441.30872 
   16600    1.1751064 5.0845932e-05    438.32602 
   16700    1.1810256 6.2445665e-05    435.38049 
   16800    1.1874171 6.6391894e-05    431.74257 
   16900    1.1944274 7.3727631e-05    429.18454 
   17000    1.2022482 9.178397e-05    425.50479 
   17100    1.2117602 0.00010026093     421.9739 
   17200     1.222608 0.0001159719     417.9316 
   17300    1.2348567 0.00013477427     414.2101 
   17400    1.2479911 0.0001346592     410.7635 
   17500    1.2619996 0.00013677256    408.36349 
   17600    1.2763206 0.0001544556    406.66583 
   17700    1.2915609 0.00015319738    404.77522 
   17800    1.3074491 0.00016081438    403.24527 
   17900    1.3240171 0.00016698171    402.25542 
   18000    1.3415223 0.00017961599    401.70133 
   18100    1.3594594 0.00018024629    401.38274 
   18200     1.378151 0.00020650147    400.67871 
   18300    1.3979107 0.00020037176    400.69849 
   18400    1.4188537 0.00020553433    400.35004 
   18500    1.4410954 0.00023370452    399.92983 
   18600    1.4646729 0.00024197275    399.98849 
   18700    1.4885845 0.00023378708    400.14648 
   18800    1.5117477 0.00023206041    400.77369 
   18900    1.5348371 0.00022883948    400.31109 
   19000    1.5583645 0.00026204406    399.43375 
   19100    1.5836571 0.00024615813     399.3504 
   19200    1.6088283 0.0002736239    399.88095 
   19300    1.6360759 0.00027250807    400.52257 
   19400    1.6622326 0.00023574937    401.26266 
   19500    1.6881156 0.0002733852    400.63752 
   19600    1.7145277 0.00029135165    400.86222 
   19700    1.7443972 0.00029168951    400.87137 
   19800    1.7743651 0.00031217416    401.01181 
   19900    1.8045955 0.00029094774    401.10791 
   20000    1.8352726 0.00031073807    400.55369 
   20100    1.8655701 0.00030280741    401.04622 
   20200    1.8942801 0.00027200874    401.48298 
   20300    1.9220683 0.00027943112    401.72666 
   20400    1.9506581 0.00029144556    401.61455 
   20500    1.9793371 0.00029180449    401.79602 
   20600    2.0080955 0.00026769502    401.71144 
   20700    2.0333782 0.0002477148    401.57434 
   20800    2.0593094 0.00026957052     402.1618 
   20900    2.0869301 0.00029742471    402.51607 
   21000    2.1181766 0.00031978556    402.04452 
   21100    2.1489236 0.00029654413    401.62884 
   21200    2.1783501 0.00030847308    401.80934 
   21300    2.2095738 0.00030296097    402.11605 
   21400    2.2399144 0.00030612707    401.85769 
   21500    2.2678943 0.00024606542    401.67438 
   21600     2.291605 0.00024118397    401.97026 
   21700    2.3182418 0.00030913193    402.11097 
   21800    2.3486919 0.00029720596    402.11072 
   21900     2.376482 0.0002790458     401.7915 
   22000    2.4065875 0.00033009159    401.83178 
   22100    2.4385063 0.0002990986    401.72327 
   22200    2.4692132 0.00033084945    401.85143 
   22300    2.5015419 0.00030736855     402.2694 
   22400    2.5302992 0.00027786626    401.97439 
   22500    2.5589446 0.00028279815    402.06877 
   22600    2.5888235 0.00031275616    402.31197 
   22700    2.6202482 0.00030429375    402.05027 
   22800    2.6500482 0.00027828563    402.28908 
   22900    2.6775636 0.00028104272    402.28259 
   23000     2.706638 0.00026332268    402.60498 
   23100    2.7315088 0.00024825336    402.37724 
   23200    2.7566086 0.00025311612    402.40873 
   23300    2.7818535 0.00025335011      402.383 
   23400    2.8099068 0.00031940358    402.39914 
   23500    2.8435542 0.00035490422    402.55403 
   23600    2.8760323 0.00032578292    402.69261 
   23700    2.9084844 0.00031438912    402.54082 
   23800    2.9404548 0.0003310049    402.89186 
   23900    2.9731725 0.00033248791    402.80082 
   24000    3.0061097 0.00031984397     403.5867 
   24100    3.0387106 0.00032781463    402.96695 
   24200    3.0714263 0.00030475242    403.27107 
   24300    3.1027976 0.00032313334    403.35033 
   24400    3.1339669 0.0002969205    403.45726 
   24500    3.1662548 0.00032912746    403.74533 
   24600    3.1979664 0.00030902465    403.47522 
   24700    3.2313155 0.00035379299    403.58092 
   24800    3.2656342 0.00034266036    403.95135 
   24900    3.3001612 0.00032858738    404.12841 
   25000    3.3294854 0.00028967671    403.71519 
   25100    3.3605849 0.00034162733    403.98946 
   25200    3.3939103 0.00034552185    404.08785 
   25300    3.4296115 0.00035388598    404.19146 
   25400     3.465559 0.00036570073    404.58458 
   25500    3.5022688 0.00032425277    404.19642 
   25600    3.5339408 0.00035861109    404.33268 
   25700    3.5687665 0.00033154968    404.54082 
   25800    3.6027609 0.00031899771    404.28365 
   25900    3.6351367 0.00030024328    404.81226 
   26000    3.6641784 0.00029486562    404.48946 
   26100    3.6950239 0.00030938639    404.51462 
   26200     3.725974 0.00033399846    404.77739 
   26300    3.7602809 0.00035436031    405.10901 
   26400    3.7958793 0.00035199808    404.91036 
   26500    3.8293358 0.00032966149    404.80652 
   26600    3.8635072 0.00035167398    404.79611 
   26700    3.8976965 0.00031883067    404.80356 
   26800    3.9307792 0.00032805781    404.59991 
   26900    3.9638129 0.00034213624    405.13066 
   27000    3.9977556 0.00034277891    404.97569 
   27100    4.0307642 0.00032546842    404.89778 
   27200     4.063656 0.00035529701    404.89416 
   27300    4.1008284 0.00037155858    405.23987 
   27400    4.1366056 0.00033611236    405.26027 
   27500    4.1703231 0.00035200275    405.34707 
   27600     4.204933 0.00033198864    405.70744 
   27700    4.2389679 0.00033059242    405.48199 
   27800    4.2728201 0.00035583686    405.79999 
   27900    4.3065754 0.00033479028     405.5602 
   28000    4.3399763 0.00034833612    405.66385 
   28100    4.3737707 0.00032896482    405.93677 
   28200    4.4092074   0.00033588    405.93896 
   28300    4.4425218 0.0003222088    405.88764 
   28400    4.4751343 0.00035294404     406.1363 
   28500    4.5108435 0.00034260877     406.4254 
   28600    4.5457653 0.00038897061    406.37828 
   28700     4.584161 0.00036198863    406.19933 
   28800    4.6224633 0.00036861463    406.73349 
   28900     4.658202 0.00035017297    406.84917 
   29000    4.6958553 0.00038515035     407.1536 
   29100    4.7343913 0.00037020206     407.1608 
   29200    4.7714636 0.00037110865    407.26261 
   29300    4.8083943 0.00038990397    407.62524 
   29400     4.847146 0.00034326062    407.99701 
   29500    4.8794483 0.00032758801    408.36301 
   29600    4.9136197 0.00035830131    408.21847 
   29700    4.9509978 0.00037483139    408.66716 
   29800    4.9870773 0.00036540286    409.08755 
   29900    5.0218381 0.00031349295     408.7513 
   30000    5.0565595 0.00036662684    409.02343 
   30100    5.0947843 0.00039850632    409.26498 
   30200    5.1341504 0.00038513664    409.72805 
   30300    5.1720873 0.00034712779    409.42378 
   30400    5.2070454 0.0003654828    409.97793 
   30500    5.2452762 0.00039928517     410.0387 
   30600    5.2822335 0.00036485189    410.63361 
   30700    5.3173637 0.00034462829      410.459 
   30800    5.3560399 0.00039633311    410.66731 
   30900    5.3924644 0.00035324082    411.61806 
   31000     5.431618 0.00041592627    411.33365 
   31100    5.4719324 0.00039316111    411.58789 
   31200    5.5122898 0.00037600895    412.02991 
   31300    5.5509136 0.00034711286    412.09478 
   31400    5.5852721 0.00037378997    412.63162 
   31500    5.6250106 0.00040632685    412.53249 
   31600    5.6649334 0.00040565929    412.65511 
   31700    5.7038506 0.00037661277    412.71153 
   31800    5.7434923 0.00038891536    412.84925 
   31900    5.7836852 0.00038654567    412.79148 
   32000    5.8239121 0.00044457821    413.18099 
   32100    5.8660746 0.00041286071    412.91275 
   32200    5.9055125 0.00037391988    412.98364 
   32300    5.9449835 0.00040047433    413.28059 
   32400     5.986094 0.00038242511    413.24798 
   32500    6.0235933 0.00039481353     413.2259 
   32600    6.0624594 0.00039789813    413.16991 
   32700    6.1036662 0.0004262838    413.26806 
   32800    6.1455699 0.0004343738    413.19311 
   32900    6.1874917 0.0003961787    413.27733 
   33000    6.2281525 0.00039880754    413.63516 
   33100    6.2683538 0.00039800146    413.31835 
   33200    6.3077213 0.00037925946    414.00058 
   33300    6.3461704 0.00039368446    413.81115 
   33400    6.3891206 0.00041048391    413.85102 
   33500    6.4272147 0.00034677663    414.09004 
   33600    6.4654181 0.00039049757    413.94654 
   33700    6.5047291 0.00040176225    413.81671 
   33800    6.5471176 0.00041964837    414.26579 
   33900    6.5870878 0.00042318313    413.98417 
   34000     6.628143 0.00039834379     414.2992 
   34100    6.6682929 0.0003890986    414.45443 
   34200    6.7033331 0.0003314399    414.11869 
   34300    6.7409109 0.00041335886    414.25759 
   34400    6.7808224 0.00042304634    413.91633 
   34500     6.822747 0.00039432057    414.34851 
   34600    6.8630507 0.00038124195    414.68931 
   34700    6.9024565 0.00038955655     414.2089 
   34800    6.9424622 0.00043478682    414.60669 
   34900     6.984248 0.00043111268    414.49317 
   35000    7.0266549 0.00041222665    414.38192 
   35100    7.0685086 0.00041697564    414.60079 
   35200     7.107862 0.00039751378    414.74976 
   35300    7.1484611 0.00041656608    414.35485 
   35400    7.1898863 0.00040349106    414.95671 
   35500    7.2306749 0.00042508229    414.80529 
   35600    7.2708558 0.00039315683    414.71446 
   35700    7.3114527 0.00035172539    415.05375 
   35800    7.3484482 0.00041236136    415.05132 
   35900    7.3876522 0.00037522554    415.16776 
   36000    7.4236047 0.00034118325    415.34644 
   36100    7.4633969 0.00042949385    415.13284 
   36200    7.5044679 0.00041357131    415.13361 
   36300    7.5475374 0.00043165346    415.29411 
   36400    7.5890673 0.0004094636    415.38563 
   36500    7.6316065 0.0004509843    415.64125 
   36600     7.673828 0.00041929347    415.10889 
   36700    7.7143283 0.00042092498    415.75076 
   36800    7.7554383 0.00042169342    415.52468 
   36900    7.7991824 0.00042903829    415.64031 
   37000     7.840095 0.00035914411    415.92224 
   37100    7.8767615 0.00037836249    415.78942 
   37200     7.918885 0.00045117497    415.99245 
   37300     7.964027 0.00044715475    415.98433 
   37400    8.0054612 0.00041911481    416.09432 
   37500    8.0458855  0.000362763    415.99528 
   37600    8.0852653 0.0004018904    416.81971 
   37700    8.1264671 0.00041334245    416.44909 
   37800     8.164836 0.00037485659    416.99455 
   37900    8.2044111 0.00037007249    416.32991 
   38000    8.2432764 0.00040876854    417.44694 
   38100    8.2859924 0.00043095761    417.22022 
   38200    8.3310293 0.00042622391    417.44677 
   38300    8.3747885 0.00043640962     417.5562 
   38400    8.4182578 0.00043458182    417.82223 
   38500    8.4631272 0.00042612955    417.60869 
   38600    8.5076308 0.00044453429      417.854 
   38700    8.5508613 0.00045219748    417.90611 
   38800    8.5962404 0.00046372753    418.03992 
   38900    8.6381717 0.00042834793    417.84836 
   39000    8.6834301 0.00043817934    418.10418 
   39100    8.7254763 0.00039192323    417.73225 
   39200    8.7694498 0.00044737444    417.98995 
   39300    8.8151078 0.0004664307    418.02651 
   39400    8.8583955 0.0004129514    417.75587 
   39500    8.9030629 0.00048629219    417.96297 
   39600    8.9485928 0.00048253022    417.77683 
   39700    8.9967117 0.00045489718    417.79675 
   39800    9.0440474 0.00044321466    417.68956 
   39900    9.0878877 0.00045576986    417.60033 
   40000     9.131578 0.00042020199    417.38797 
   40100    9.1779846 0.00047233703    417.40082 
   40200     9.224586 0.00042357458    417.36916 
   40300     9.267882 0.00046703466    417.38906 
   40400    9.3161355 0.00048769032     417.3218 
   40500    9.3642416 0.00046460132    417.27805 
   40600    9.4102771 0.00042889695    417.29175 
   40700    9.4537141 0.00044056056    417.17628 
   40800    9.4993672 0.00044775221    417.01659 
   40900    9.5462393 0.00047278801    416.78562 
   41000    9.5914078 0.00043786296    416.79434 
   41100     9.636036 0.00040374705    416.71185 
   41200    9.6804716 0.00041379758    416.60354 
   41300    9.7207136 0.00046194935    416.85636 
   41400    9.7678456 0.00047164773    416.35788 
   41500    9.8156033 0.00050489983     416.4234 
   41600    9.8614189 0.00049318331    416.47085 
   41700    9.9083248 0.0004909245    416.45695 
   41800    9.9571384 0.00049762452    416.44197 
   41900    10.004583 0.0004456774    416.27228 
   42000    10.054132 0.00047752491    416.55726 
   42100    10.099777 0.00041568582    416.09993 
   42200    10.140529 0.00041354842    416.16692 
   42300    10.184768 0.00049793631    415.97619 
   42400    10.233872 0.0004221197    415.62956 
   42500    10.280294 0.00054674218    415.80397 
   42600    10.330997 0.00046490961    415.89815 
   42700    10.380948 0.00049293802    415.36239 
   42800    10.426064 0.00045606156    415.24952 
   42900    10.473991 0.00047536524    415.24067 
   43000    10.521348 0.00044945774    415.07815 
   43100     10.56931 0.00050278193    415.18417 
   43200    10.612291 0.00041737586    415.03843 
   43300    10.657471 0.00047778586    415.11328 
   43400    10.704788 0.00047677642    414.73157 
   43500     10.75365 0.0004548472    415.79085 
   43600    10.801257 0.00051655322    415.09801 
   43700    10.851195 0.00049665662    415.26572 
   43800    10.900994 0.00049345783    415.60597 
   43900    10.948807 0.00049275218    415.50015 
   44000    10.998059 0.00054308031    415.74998 
   44100     11.05222 0.00049329804    416.13611 
   44200    11.103112 0.00050521918    416.19604 
   44300    11.152929 0.00051205699    416.53651 
   44400     11.20303 0.00048097091    416.68089 
   44500    11.249304 0.00051229786    417.15659 
   44600    11.297238 0.00047875109     417.2676 
   44700    11.341956 0.00047445257    417.60067 
   44800     11.39259 0.00052413675    417.79366 
   44900    11.438948 0.00045002124    418.09228 
   45000    11.489517 0.00050657806    418.07045 
   45100     11.53776 0.00054104994    418.48374 
   45200    11.587775 0.0004679951    418.73175 
   45300    11.639119 0.00051936473    418.66673 
   45400    11.690376 0.00050035954    419.23248 
   45500    11.738097 0.00045757363    419.08476 
   45600    11.785575 0.00048331668    419.20079 
   45700    11.836655 0.00050281483    419.58614 
   45800    11.888121 0.00053572428    419.38369 
   45900    11.938528 0.00048725594    419.33323 
   46000      11.9878 0.00052161859    419.54861 
   46100    12.039048 0.00051733524    419.67463 
   46200    12.093688 0.00053171231    419.30927 
   46300     12.14484 0.00047295906    419.09638 
   46400    12.194354 0.00055518972    419.12769 
   46500    12.248834 0.00053346363    419.13027 
   46600    12.303571 0.00054191802    419.11013 
   46700    12.354538 0.00046613928    418.64597 
   46800    12.408035 0.00059764416    418.64691 
   46900    12.464705 0.00055498346    418.35977 
   47000    12.516326 0.00051474278    418.29794 
   47100    12.564324 0.00046707686    418.00905 
   47200    12.613768 0.00057045428    418.11199 
   47300      12.6679 0.00043247689    417.71914 
   47400    12.716569 0.00053512135    417.82895 
   47500     12.76886 0.00047256204    417.48641 
   47600    12.814256 0.00054350973      417.471 
   47700     12.86872 0.00055490297    417.22641 
   47800    12.922688 0.00050664228    417.35685 
   47900    12.976407 0.00059201696    417.13229 
   48000      13.0308 0.00046776499    416.92968 
   48100     13.07959 0.00052766205    416.91707 
   48200    13.130093 0.00047647224    417.12619 
   48300    13.182128 0.00051887969    416.75179 
   48400    13.233386 0.00053417208    416.80494 
   48500    13.284473 0.0004996566    416.69602 
   48600    13.337148 0.00051851061    416.61086 
   48700    13.390477 0.00055387248    416.74096 
   48800    13.446071 0.00055886122    416.26805 
   48900    13.501461 0.00046514251    416.63251 
   49000     13.54536 0.00051135319    416.59004 
   49100    13.600448 0.00060226034    416.41766 
   49200    13.655006 0.00056525712    416.37367 
   49300    13.714768 0.00056946623    416.30429 
   49400    13.770658 0.00063573248    416.18209 
   49500    13.825842 0.00052014265    416.52371 
   49600    13.884033 0.00057752042    416.25364 
   49700    13.941044 0.00057986134     416.4007 
   49800    13.998643 0.00057415055    416.34484 
   49900    14.055602 0.00064240603    416.51221 
   50000    14.111126 0.00054174712     416.9101 
   50100    14.169662 0.00056877971     416.8213 
   50200    14.224529 0.00047980349     417.3564 
   50300    14.269698 0.00047164346    416.77113 
   50400    14.320656 0.0005914694    417.40221 
   50500    14.380597 0.00057672961     417.4991 
   50600    14.443515 0.00064427555    417.72985 
   50700    14.506854 0.00058774438    417.75238 
   50800    14.565386 0.00059646879    417.99002 
   50900    14.627538 0.00063114158    417.90498 
   51000    14.690368 0.00060967103    417.82078 
   51100    14.755321 0.00060921458    417.59621 
   51200    14.820857 0.00062462768    417.72826 
   51300    14.884993 0.0006213847    417.24682 
   51400    14.950564 0.00065017589    417.21232 
   51500    15.012222 0.00057997842    417.17394 
   51600    15.073977 0.00068839298    416.53132 
   51700    15.140512 0.00065701624    416.50381 
   51800    15.206608 0.00067176001    416.15774 
   51900     15.27175 0.00068525559     416.4042 
   52000    15.338457 0.00064387077    415.60131 
   52100    15.405561 0.00058165223    415.61959 
   52200     15.46918 0.00065863912    414.91391 
   52300    15.536096 0.00062661859    415.14806 
   52400    15.604753 0.00065485811    414.63135 
   52500    15.672399 0.00070719469    414.19656 
   52600     15.73856 0.00070414666    413.79925 
   52700    15.806088 0.00070142842    413.55393 
   52800    15.878614 0.0007327296    413.30241 
   52900    15.950883 0.00057881666     413.2012 
   53000    16.016515 0.00073189877    412.72748 
   53100    16.085961 0.00067240705    412.56688 
   53200    16.158415 0.00069574133    412.33054 
   53300    16.230788 0.00072789925    412.09048 
   53400     16.29958 0.00069521008    411.86435 
   53500    16.371879 0.00074828125    411.59287 
   53600    16.441886 0.00065851943    411.47446 
   53700    16.512446 0.00073230543    411.33081 
   53800    16.581081 0.00072747795    410.97403 
   53900    16.654355 0.00074453037    411.05946 
   54000    16.724219 0.00067198691    411.11054 
   54100    16.797159 0.00069786292    411.10695 
   54200    16.870196 0.00075804421    411.21363 
   54300    16.943292 0.00075353914    411.12944 
   54400    17.016597 0.00070210943    411.47897 
   54500    17.089984 0.00070968115    411.36703 
   54600    17.164725 0.00076399659    411.61926 
   54700    17.239084 0.0007183043    411.77065 
   54800    17.313611 0.00077949576    411.72809 
   54900    17.387813 0.00075544302    411.87144 
   55000    17.464618 0.00068261909    412.07805 
   55100     17.52331 0.00052649749    411.90959 
   55200     17.59188 0.00076641649    411.93289 
   55300    17.670006 0.00080363563    411.88563 
   55400    17.749233 0.00066942838    411.91082 
   55500    17.816726 0.00072896565    411.83234 
   55600    17.890172 0.00073214638    411.88126 
   55700    17.962184 0.00071241621    411.81462 
   55800    18.036691 0.00074168108    411.76639 
   55900    18.111412 0.00076593462     411.9224 
   56000    18.189183 0.00076460906    411.57266 
   56100    18.266512 0.00074245575    411.54595 
   56200    18.345291 0.00067464185    411.32999 
   56300    18.418865 0.00078475705    411.09528 
   56400    18.499568 0.00084621729    410.69506 
   56500    18.577167 0.00079982453    410.37554 
   56600    18.657352 0.00080096615    410.30521 
   56700    18.736878 0.0007770033     410.1929 
   56800     18.81875 0.00081954657    409.62237 
   56900    18.898388   0.00074583    409.61352 
   57000     18.97592 0.0008172777    409.29842 
   57100    19.055894 0.00080496466     409.3881 
   57200    19.137669 0.00086489208    408.95995 
   57300    19.218429 0.00076197769    409.05401 
   57400    19.300431 0.00083915289    408.96419 
   57500      19.3799 0.00082888939     409.0082 
   57600    19.462929 0.00078725958     408.9975 
   57700    19.544415 0.00086460672    408.84258 
   57800    19.625233 0.00079099754    408.66237 
   57900    19.706145 0.0008101903    408.41583 
   58000    19.789134 0.00084462639    408.46476 
   58100    19.872868 0.00079879756    408.01444 
   58200    19.953293 0.0008489447    408.20091 
   58300    20.037189 0.0008253525    408.31004 
   58400    20.120874 0.00081723206    407.93242 
   58500    20.203187 0.00081230511     407.7323 
   58600    20.286836 0.00084656029    407.65375 
   58700    20.370692 0.00085086074    407.52735 
   58800    20.450884 0.00082799822    407.40285 
   58900    20.535207 0.00086192682    407.21788 
   59000     20.61907 0.00086596441    407.26485 
   59100     20.70459 0.00083591737    407.06165 
   59200    20.787236 0.00086820446    406.97034 
   59300    20.869568 0.00078049735     407.0983 
   59400    20.952181 0.00086923502    406.95849 
   59500    21.039494 0.00085185619    407.02631 
   59600    21.125399 0.00084313449    407.37265 
   59700    21.210342 0.00093288469    407.35146 
   59800    21.296224 0.00090123918    407.53886 
   59900    21.383361 0.00087969375     407.2192 
   60000    21.468839 0.00088813908    406.97424 
   60100     21.55517 0.00091590011    406.56138 
   60200    21.643917 0.00089791872    406.04819 
   60300    21.730769 0.00088367719    405.33808 
   60400    21.819295 0.00090180064    404.76544 
   60500    21.905143 0.00088485336    403.93082 
   60600    21.994996 0.00087295584    403.32157 
   60700    22.083926 0.00091355609     402.6547 
   60800     22.16837 0.00092660048    402.06261 
   60900    22.256749 0.00082049607    401.51316 
   61000    22.345486 0.00095191169    401.00048 
   61100     22.43607 0.00093651235    400.30849 
   61200    22.524895 0.00089201441    399.98139 
   61300    22.614901 0.00089690633    399.86736 
   61400    22.705677 0.00095649537    399.58279 
   61500    22.797284 0.00092778893    399.53949 
   61600    22.890037 0.00089360949    399.68046 
   61700    22.978379 0.00087715715    399.79633 
   61800    23.067843 0.00094353911    399.91004 
   61900    23.160035 0.00096822473    400.07452 
   62000    23.251109 0.00086923199    400.13627 
   62100    23.339801 0.00080551014    400.23909 
   62200    23.407348 0.00054650029    400.49789 
   62300    23.464084 0.00081136046    400.27333 
   62400    23.552795 0.00096924281    400.33088 
   62500    23.645786 0.00093810949     400.3478 
   62600    23.733781 0.00068062873    400.21253 
   62700    23.792858 0.00057723599      400.205 
   62800    23.858597 0.0008467459    400.32842 
   62900    23.949188 0.00092556357    400.23304 
   63000    24.038564 0.00096055654    400.32896 
   63100    24.132261 0.00094450787    400.26758 
   63200    24.225515 0.00097415029    400.19954 
   63300     24.31717 0.0008551961    400.10903 
   63400    24.407769  0.000955978    399.84711 
   63500    24.502509 0.00097482194    399.63746 
   63600    24.595032 0.00093760888    399.45728 
   63700    24.688102 0.0009374416    399.14743 
   63800    24.782382 0.00093503061    399.27992 
   63900    24.873351 0.00091989487    398.70663 
   64000    24.963521 0.00088075771    398.75396 
   64100    25.057424 0.00096763104    398.29541 
   64200    25.151728 0.00099448903    398.14757 
   64300    25.246745 0.00095304711    397.75242 
   64400    25.340587 0.00097450711    397.43824 
   64500    25.434032 0.00091325625    397.10578 
   64600    25.525514 0.00092676212    396.68885 
   64700     25.61974 0.0010048582    396.30231 
   64800    25.712528 0.00092176432    396.09521 
   64900     25.80519 0.00091632287    395.93377 
   65000    25.899858 0.00091731206    395.66763 
   65100    25.994491 0.00091555138    395.69551 
   65200    26.090269 0.0010599646    395.55578 
   65300    26.185784 0.00083034068    395.49677 
   65400    26.278505 0.00087175479    395.25127 
   65500    26.373883 0.00090682996    395.47411 
   65600    26.467491 0.00099942679    395.43655 
   65700    26.562703 0.00093907139    395.28808 
   65800    26.659968 0.00099529527    395.46562 
   65900    26.756317 0.0009405495    395.57488 
   66000    26.846986 0.0009609825    395.39493 
   66100    26.945206 0.0010091239    395.34539 
   66200    27.041136 0.00099631004    395.21436 
   66300    27.140434 0.00095310731    395.11384 
   66400    27.235752 0.00098967318    394.98764 
   66500    27.333206 0.00095382112    394.49078 
   66600    27.430783 0.00095468994    394.20243 
   66700    27.528432 0.00097199128    393.57145 
   66800     27.62782  0.001059575    392.85566 
   66900    27.727386 0.00090188589    392.24075 
   67000    27.824635 0.0010177665    391.66281 
   67100    27.921206 0.0010194991    391.13399 
   67200    28.024227 0.00091790355    390.60531 
   67300    28.123578 0.0010047284    390.26268 
   67400    28.215844 0.00071194899    389.64195 
   67500    28.268974 0.00040852494    389.55759 
   67600    28.316863 0.00083228178    389.33623 
   67700    28.400162 0.00087966404    389.19635 
   67800     28.48968 0.0010197949    388.81388 
   67900    28.588898  0.001025322    388.55519 
   68000     28.68795 0.0010394295    388.47881 
   68100    28.789417 0.00095561488    388.36936 
   68200    28.887151 0.00097547058    388.21025 
   68300    28.988015 0.00092544501    388.20042 
   68400     29.09059 0.0010365795    388.26667 
Fix halt 4 condition met on step 68440 with value 0.00110603 (../fix_halt.cpp:193)
Loop time of 9902.17 on 112 procs for 68440 steps with 4394000 atoms

Performance: 0.660 ns/day, 36.337 hours/ns, 6.912 timesteps/s
99.5% CPU use with 112 MPI tasks x no OpenMP threads

MPI task timing breakdown:
Section |  min time  |  avg time  |  max time  |%varavg| %total
---------------------------------------------------------------
Pair    | 6965.5     | 7585.3     | 8999.7     | 881.2 | 76.60
Neigh   | 49.463     | 54.718     | 76.36      |  71.9 |  0.55
Comm    | 232.46     | 1656       | 2245.3     |1893.7 | 16.72
Output  | 131.13     | 131.15     | 131.25     |   0.1 |  1.32
Modify  | 241.56     | 308.72     | 378.01     | 167.9 |  3.12
Other   |            | 166.3      |            |       |  1.68

Nlocal:    39232.1 ave 41036 max 38188 min
Histogram: 6 21 25 5 34 6 8 3 3 1
Nghost:    25625.8 ave 26445 max 23400 min
Histogram: 1 0 5 5 6 8 6 40 16 25
Neighs:    2.46971e+06 ave 2.60063e+06 max 2.33066e+06 min
Histogram: 7 8 5 10 21 19 16 14 10 2

Total # of neighbors = 276607229
Ave neighs/atom = 62.9511
Neighbor list builds = 551
Dangerous builds = 0
unfix           4
unfix           3
timestep        0.001
run             40000
Neighbor list info ...
  update every 1 steps, delay 10 steps, check yes
  max neighbors/atom: 2000, page size: 100000
  master list distance cutoff = 7.7
  ghost atom cutoff = 7.7
  binsize = 3.85, bins = 107 107 107
  4 neighbor lists, perpetual/occasional/extra = 4 0 0
  (1) pair eam/alloy, perpetual
      attributes: half, newton on
      pair build: half/bin/atomonly/newton
      stencil: half/bin/3d/newton
      bin: standard
  (2) pair zbl, perpetual, skip from (1)
      attributes: half, newton on
      pair build: skip
      stencil: none
      bin: none
  (3) pair zbl, perpetual, skip from (1)
      attributes: half, newton on
      pair build: skip
      stencil: none
      bin: none
  (4) pair zbl, perpetual, skip from (1)
      attributes: half, newton on
      pair build: skip
      stencil: none
      bin: none
Per MPI rank memory allocation (min/avg/max) = 65.57 | 67.5 | 73.37 Mbytes
Step Time Dt Temp 
   68440    29.132243        0.001    387.99638 
   68500    29.192243        0.001    388.21152 
   68600    29.292243        0.001    387.87263 
   68700    29.392243        0.001    387.68758 
   68800    29.492243        0.001    387.62776 
   68900    29.592243        0.001    387.69969 
   69000    29.692243        0.001    387.50451 
   69100    29.792243        0.001    387.66968 
   69200    29.892243        0.001     387.8547 
   69300    29.992243        0.001     387.5737 
   69400    30.092243        0.001    387.52955 
   69500    30.192243        0.001    387.30778 
   69600    30.292243        0.001    387.27135 
   69700    30.392243        0.001    387.00948 
   69800    30.492243        0.001    386.91118 
   69900    30.592243        0.001    387.05555 
   70000    30.692243        0.001     387.0325 
   70100    30.792243        0.001      386.753 
   70200    30.892243        0.001    386.69566 
   70300    30.992243        0.001    386.39674 
   70400    31.092243        0.001    385.78372 
   70500    31.192243        0.001    385.80681 
   70600    31.292243        0.001    385.33053 
   70700    31.392243        0.001     385.0187 
   70800    31.492243        0.001    384.29213 
   70900    31.592243        0.001    384.03493 
   71000    31.692243        0.001    383.59074 
   71100    31.792243        0.001    383.52301 
   71200    31.892243        0.001    383.11689 
   71300    31.992243        0.001    383.02803 
   71400    32.092243        0.001    382.90965 
   71500    32.192243        0.001    382.80304 
   71600    32.292243        0.001    382.82369 
   71700    32.392243        0.001    382.86275 
   71800    32.492243        0.001    382.78043 
   71900    32.592243        0.001    382.86561 
   72000    32.692243        0.001    382.98463 
   72100    32.792243        0.001    382.80579 
   72200    32.892243        0.001    382.81784 
   72300    32.992243        0.001    382.78132 
   72400    33.092243        0.001    382.44026 
   72500    33.192243        0.001    382.05154 
   72600    33.292243        0.001    381.83912 
   72700    33.392243        0.001    381.61039 
   72800    33.492243        0.001    381.28224 
   72900    33.592243        0.001    380.79298 
   73000    33.692243        0.001    380.48373 
   73100    33.792243        0.001    380.19923 
   73200    33.892243        0.001     379.8954 
   73300    33.992243        0.001    379.62976 
   73400    34.092243        0.001    379.22653 
   73500    34.192243        0.001    378.59649 
   73600    34.292243        0.001    378.33765 
   73700    34.392243        0.001    377.91429 
   73800    34.492243        0.001    377.43529 
   73900    34.592243        0.001    376.87878 
   74000    34.692243        0.001    376.22855 
   74100    34.792243        0.001    375.96834 
   74200    34.892243        0.001    375.47478 
   74300    34.992243        0.001    375.25152 
   74400    35.092243        0.001    375.15272 
   74500    35.192243        0.001    374.95791 
   74600    35.292243        0.001     375.0945 
   74700    35.392243        0.001    375.24842 
   74800    35.492243        0.001    374.98488 
   74900    35.592243        0.001    374.99056 
   75000    35.692243        0.001    375.60427 
   75100    35.792243        0.001    375.61519 
   75200    35.892243        0.001    375.76562 
   75300    35.992243        0.001    375.91443 
   75400    36.092243        0.001    375.93108 
   75500    36.192243        0.001    375.86328 
   75600    36.292243        0.001    375.83107 
   75700    36.392243        0.001    375.57137 
   75800    36.492243        0.001    375.50969 
   75900    36.592243        0.001    375.22699 
   76000    36.692243        0.001    374.79772 
   76100    36.792243        0.001     374.8799 
   76200    36.892243        0.001    374.24091 
   76300    36.992243        0.001    374.03737 
   76400    37.092243        0.001    373.46206 
   76500    37.192243        0.001    373.25594 
   76600    37.292243        0.001    372.85084 
   76700    37.392243        0.001    372.26887 
   76800    37.492243        0.001    371.85584 
   76900    37.592243        0.001     371.5092 
   77000    37.692243        0.001    371.14374 
   77100    37.792243        0.001    370.92819 
   77200    37.892243        0.001     370.8687 
   77300    37.992243        0.001     370.6755 
   77400    38.092243        0.001    370.86381 
   77500    38.192243        0.001    370.53633 
   77600    38.292243        0.001    370.50682 
   77700    38.392243        0.001    370.80929 
   77800    38.492243        0.001    370.90473 
   77900    38.592243        0.001    370.90084 
   78000    38.692243        0.001    370.88541 
   78100    38.792243        0.001    371.23869 
   78200    38.892243        0.001     371.0823 
   78300    38.992243        0.001    370.77874 
   78400    39.092243        0.001    371.18156 
   78500    39.192243        0.001     370.7196 
   78600    39.292243        0.001    370.60128 
   78700    39.392243        0.001    370.29389 
   78800    39.492243        0.001    370.20631 
   78900    39.592243        0.001    369.74277 
   79000    39.692243        0.001    369.44111 
   79100    39.792243        0.001    369.09166 
   79200    39.892243        0.001    368.63537 
   79300    39.992243        0.001     368.1467 
   79400    40.092243        0.001    367.91578 
   79500    40.192243        0.001    367.30374 
   79600    40.292243        0.001    366.85328 
   79700    40.392243        0.001    366.41199 
   79800    40.492243        0.001     365.9326 
   79900    40.592243        0.001    365.66914 
   80000    40.692243        0.001    365.35762 
   80100    40.792243        0.001    365.19269 
   80200    40.892243        0.001    364.77357 
   80300    40.992243        0.001    364.48454 
   80400    41.092243        0.001    364.28278 
   80500    41.192243        0.001    363.91672 
   80600    41.292243        0.001    363.87134 
   80700    41.392243        0.001    363.57301 
   80800    41.492243        0.001    363.60792 
   80900    41.592243        0.001    363.48024 
   81000    41.692243        0.001    363.59588 
   81100    41.792243        0.001    363.56607 
   81200    41.892243        0.001    363.60586 
   81300    41.992243        0.001    363.77423 
   81400    42.092243        0.001    363.68315 
   81500    42.192243        0.001    363.83827 
   81600    42.292243        0.001     363.9594 
   81700    42.392243        0.001    364.02124 
   81800    42.492243        0.001    363.94086 
   81900    42.592243        0.001     363.8486 
   82000    42.692243        0.001    363.68212 
   82100    42.792243        0.001    363.61521 
   82200    42.892243        0.001    363.32555 
   82300    42.992243        0.001    363.08392 
   82400    43.092243        0.001     362.9179 
   82500    43.192243        0.001    362.40515 
   82600    43.292243        0.001    362.03364 
   82700    43.392243        0.001    361.79977 
   82800    43.492243        0.001    361.40852 
   82900    43.592243        0.001    361.13007 
   83000    43.692243        0.001    361.05404 
   83100    43.792243        0.001    360.69731 
   83200    43.892243        0.001    360.27808 
   83300    43.992243        0.001     360.3051 
   83400    44.092243        0.001    360.20724 
   83500    44.192243        0.001    359.88279 
   83600    44.292243        0.001    359.73565 
   83700    44.392243        0.001    359.55911 
   83800    44.492243        0.001    359.35398 
   83900    44.592243        0.001    359.46963 
   84000    44.692243        0.001    359.74238 
   84100    44.792243        0.001     359.7167 
   84200    44.892243        0.001    359.72446 
   84300    44.992243        0.001    359.67058 
   84400    45.092243        0.001    360.00347 
   84500    45.192243        0.001    359.87329 
   84600    45.292243        0.001    359.77935 
   84700    45.392243        0.001    359.65047 
   84800    45.492243        0.001    359.61747 
   84900    45.592243        0.001    359.65283 
   85000    45.692243        0.001     359.4362 
   85100    45.792243        0.001    359.10674 
   85200    45.892243        0.001    358.80581 
   85300    45.992243        0.001    358.24661 
   85400    46.092243        0.001    357.88531 
   85500    46.192243        0.001    357.45857 
   85600    46.292243        0.001    356.94669 
   85700    46.392243        0.001    356.57764 
   85800    46.492243        0.001    356.18403 
   85900    46.592243        0.001    355.76725 
   86000    46.692243        0.001    355.47077 
   86100    46.792243        0.001    354.81115 
   86200    46.892243        0.001    354.37167 
   86300    46.992243        0.001    354.01784 
   86400    47.092243        0.001     353.6778 
   86500    47.192243        0.001     353.4549 
   86600    47.292243        0.001    353.10626 
   86700    47.392243        0.001    352.96188 
   86800    47.492243        0.001    352.69517 
   86900    47.592243        0.001     352.8265 
   87000    47.692243        0.001    352.76274 
   87100    47.792243        0.001    352.72587 
   87200    47.892243        0.001     352.7578 
   87300    47.992243        0.001    352.74158 
   87400    48.092243        0.001    353.11957 
   87500    48.192243        0.001    353.34156 
   87600    48.292243        0.001    353.49589 
   87700    48.392243        0.001    353.88278 
   87800    48.492243        0.001    353.79635 
   87900    48.592243        0.001    353.86868 
   88000    48.692243        0.001    353.89447 
   88100    48.792243        0.001    353.77697 
   88200    48.892243        0.001    353.30383 
   88300    48.992243        0.001    353.00717 
   88400    49.092243        0.001    352.73707 
   88500    49.192243        0.001     352.5162 
   88600    49.292243        0.001    352.04021 
   88700    49.392243        0.001    351.67361 
   88800    49.492243        0.001    351.45873 
   88900    49.592243        0.001    351.14076 
   89000    49.692243        0.001    350.90392 
   89100    49.792243        0.001    350.82194 
   89200    49.892243        0.001    350.56901 
   89300    49.992243        0.001    350.39772 
   89400    50.092243        0.001    350.40763 
   89500    50.192243        0.001      350.301 
   89600    50.292243        0.001    350.34962 
   89700    50.392243        0.001    350.28065 
   89800    50.492243        0.001    349.88318 
   89900    50.592243        0.001    349.87567 
   90000    50.692243        0.001     349.7037 
   90100    50.792243        0.001      349.671 
   90200    50.892243        0.001    349.50546 
   90300    50.992243        0.001    349.64609 
   90400    51.092243        0.001    349.35305 
   90500    51.192243        0.001    349.30352 
   90600    51.292243        0.001    349.21697 
   90700    51.392243        0.001    349.24357 
   90800    51.492243        0.001    349.05792 
   90900    51.592243        0.001     349.0616 
   91000    51.692243        0.001    349.10389 
   91100    51.792243        0.001    349.09038 
   91200    51.892243        0.001    349.05474 
   91300    51.992243        0.001    348.88437 
   91400    52.092243        0.001    348.57886 
   91500    52.192243        0.001    348.41027 
   91600    52.292243        0.001    348.12022 
   91700    52.392243        0.001    347.90356 
   91800    52.492243        0.001    347.24384 
   91900    52.592243        0.001    346.88984 
   92000    52.692243        0.001    346.35355 
   92100    52.792243        0.001    345.68154 
   92200    52.892243        0.001    345.17586 
   92300    52.992243        0.001    344.93741 
   92400    53.092243        0.001    344.78893 
   92500    53.192243        0.001    344.29369 
   92600    53.292243        0.001    344.16488 
   92700    53.392243        0.001    343.82542 
   92800    53.492243        0.001    343.85254 
   92900    53.592243        0.001      343.739 
   93000    53.692243        0.001    343.90797 
   93100    53.792243        0.001    344.13403 
   93200    53.892243        0.001    344.12125 
   93300    53.992243        0.001    344.13756 
   93400    54.092243        0.001    344.19204 
   93500    54.192243        0.001    344.28115 
   93600    54.292243        0.001    344.18671 
   93700    54.392243        0.001    344.16441 
   93800    54.492243        0.001    344.02263 
   93900    54.592243        0.001     344.1438 
   94000    54.692243        0.001    344.02875 
   94100    54.792243        0.001    344.09565 
   94200    54.892243        0.001    344.05297 
   94300    54.992243        0.001    344.02104 
   94400    55.092243        0.001    344.06308 
   94500    55.192243        0.001    343.68974 
   94600    55.292243        0.001    343.77889 
   94700    55.392243        0.001    343.59577 
   94800    55.492243        0.001    343.47281 
   94900    55.592243        0.001     343.0763 
   95000    55.692243        0.001    342.94279 
   95100    55.792243        0.001    342.49722 
   95200    55.892243        0.001    342.40346 
   95300    55.992243        0.001    342.12827 
   95400    56.092243        0.001    341.68477 
   95500    56.192243        0.001    341.37237 
   95600    56.292243        0.001     341.0788 
   95700    56.392243        0.001    340.66391 
   95800    56.492243        0.001    340.83863 
   95900    56.592243        0.001    340.61267 
   96000    56.692243        0.001    340.49736 
   96100    56.792243        0.001    340.37025 
   96200    56.892243        0.001    340.28298 
   96300    56.992243        0.001     340.5344 
   96400    57.092243        0.001    340.44041 
   96500    57.192243        0.001    340.72705 
   96600    57.292243        0.001    340.68238 
   96700    57.392243        0.001    340.71431 
   96800    57.492243        0.001    340.85798 
   96900    57.592243        0.001    340.89467 
   97000    57.692243        0.001    340.82996 
   97100    57.792243        0.001    341.00295 
   97200    57.892243        0.001    340.90471 
   97300    57.992243        0.001    340.81428 
   97400    58.092243        0.001     340.6383 
   97500    58.192243        0.001    340.15131 
   97600    58.292243        0.001    340.10768 
   97700    58.392243        0.001    339.51851 
   97800    58.492243        0.001    339.31458 
   97900    58.592243        0.001    338.87479 
   98000    58.692243        0.001    338.42471 
   98100    58.792243        0.001    338.10601 
   98200    58.892243        0.001    337.62645 
   98300    58.992243        0.001    336.97242 
   98400    59.092243        0.001    336.74168 
   98500    59.192243        0.001    336.55845 
   98600    59.292243        0.001    336.32819 
   98700    59.392243        0.001    336.09502 
   98800    59.492243        0.001    335.81132 
   98900    59.592243        0.001    335.56616 
   99000    59.692243        0.001    335.68703 
   99100    59.792243        0.001    335.61049 
   99200    59.892243        0.001     335.4068 
   99300    59.992243        0.001    335.38523 
   99400    60.092243        0.001    335.58444 
   99500    60.192243        0.001    335.65147 
   99600    60.292243        0.001    335.80724 
   99700    60.392243        0.001    335.98278 
   99800    60.492243        0.001    336.04599 
   99900    60.592243        0.001    335.84743 
  100000    60.692243        0.001     336.1286 
  100100    60.792243        0.001    336.23424 
  100200    60.892243        0.001    336.03232 
  100300    60.992243        0.001    336.03505 
  100400    61.092243        0.001    336.00399 
  100500    61.192243        0.001    336.02236 
  100600    61.292243        0.001    335.74312 
  100700    61.392243        0.001    335.70569 
  100800    61.492243        0.001    335.50228 
  100900    61.592243        0.001    335.33115 
  101000    61.692243        0.001    335.05188 
  101100    61.792243        0.001      334.796 
  101200    61.892243        0.001    334.33431 
  101300    61.992243        0.001    333.89571 
  101400    62.092243        0.001    333.67113 
  101500    62.192243        0.001    333.36892 
  101600    62.292243        0.001    333.25175 
  101700    62.392243        0.001     333.1384 
  101800    62.492243        0.001    332.94961 
  101900    62.592243        0.001    332.52627 
  102000    62.692243        0.001    332.76262 
  102100    62.792243        0.001     332.7182 
  102200    62.892243        0.001    332.61171 
  102300    62.992243        0.001     332.8017 
  102400    63.092243        0.001    332.70985 
  102500    63.192243        0.001    332.86369 
  102600    63.292243        0.001    332.95361 
  102700    63.392243        0.001    333.01071 
  102800    63.492243        0.001    333.04739 
  102900    63.592243        0.001    333.14973 
  103000    63.692243        0.001      333.118 
  103100    63.792243        0.001    333.02871 
  103200    63.892243        0.001    333.03162 
  103300    63.992243        0.001    333.02538 
  103400    64.092243        0.001    332.83309 
  103500    64.192243        0.001    332.63666 
  103600    64.292243        0.001    332.60878 
  103700    64.392243        0.001    332.32078 
  103800    64.492243        0.001    332.20835 
  103900    64.592243        0.001    332.12785 
  104000    64.692243        0.001    331.82503 
  104100    64.792243        0.001    331.48659 
  104200    64.892243        0.001    331.24848 
  104300    64.992243        0.001    331.09351 
  104400    65.092243        0.001     330.5256 
  104500    65.192243        0.001    330.39293 
  104600    65.292243        0.001     330.0135 
  104700    65.392243        0.001    329.71714 
  104800    65.492243        0.001    329.16942 
  104900    65.592243        0.001    328.76434 
  105000    65.692243        0.001    328.63761 
  105100    65.792243        0.001    328.22982 
  105200    65.892243        0.001    328.03027 
  105300    65.992243        0.001    327.82253 
  105400    66.092243        0.001    327.87172 
  105500    66.192243        0.001    328.03704 
  105600    66.292243        0.001    328.08152 
  105700    66.392243        0.001    328.07042 
  105800    66.492243        0.001    328.07759 
  105900    66.592243        0.001    328.11207 
  106000    66.692243        0.001    328.34978 
  106100    66.792243        0.001    328.35636 
  106200    66.892243        0.001    328.44064 
  106300    66.992243        0.001    328.59735 
  106400    67.092243        0.001    328.62078 
  106500    67.192243        0.001    328.39051 
  106600    67.292243        0.001    328.70331 
  106700    67.392243        0.001    328.69811 
  106800    67.492243        0.001    328.67028 
  106900    67.592243        0.001    328.77815 
  107000    67.692243        0.001    328.69102 
  107100    67.792243        0.001    328.55753 
  107200    67.892243        0.001    328.30159 
  107300    67.992243        0.001    328.05759 
  107400    68.092243        0.001    327.83652 
  107500    68.192243        0.001    327.50259 
  107600    68.292243        0.001    327.31214 
  107700    68.392243        0.001    326.97686 
  107800    68.492243        0.001    326.77951 
  107900    68.592243        0.001    326.53062 
  108000    68.692243        0.001    325.99367 
  108100    68.792243        0.001    326.05365 
  108200    68.892243        0.001    325.87287 
  108300    68.992243        0.001    325.48861 
  108400    69.092243        0.001    325.42867 
  108440    69.132243        0.001    325.51987 
Loop time of 5711.67 on 112 procs for 40000 steps with 4394000 atoms

Performance: 0.605 ns/day, 39.664 hours/ns, 7.003 timesteps/s
99.5% CPU use with 112 MPI tasks x no OpenMP threads

MPI task timing breakdown:
Section |  min time  |  avg time  |  max time  |%varavg| %total
---------------------------------------------------------------
Pair    | 4045.6     | 4388.2     | 5218.4     | 688.8 | 76.83
Neigh   | 7.1397     | 7.9928     | 9.4563     |  26.6 |  0.14
Comm    | 133.62     | 968.98     | 1295.3     |1462.0 | 16.96
Output  | 65.897     | 66.338     | 66.611     |   2.2 |  1.16
Modify  | 133.82     | 168.3      | 210.81     | 132.7 |  2.95
Other   |            | 111.9      |            |       |  1.96

Nlocal:    39232.1 ave 40576 max 38041 min
Histogram: 5 2 27 8 16 25 14 6 3 6
Nghost:    25100.2 ave 26302 max 23100 min
Histogram: 4 2 7 6 2 17 35 10 23 6
Neighs:    2.46796e+06 ave 2.53775e+06 max 2.37809e+06 min
Histogram: 1 6 7 17 11 18 17 17 12 6

Total # of neighbors = 276411428
Ave neighs/atom = 62.9066
Neighbor list builds = 81
Dangerous builds = 0
undump          4
undump          3
undump          2
undump          1
unfix           2
unfix           1

# last snap
min_style       cg
minimize        1e-14 1e-14 1000 1000
WARNING: Using 'neigh_modify every 1 delay 0 check yes' setting during minimization (../min.cpp:168)
Neighbor list info ...
  update every 1 steps, delay 0 steps, check yes
  max neighbors/atom: 2000, page size: 100000
  master list distance cutoff = 7.7
  ghost atom cutoff = 7.7
  binsize = 3.85, bins = 107 107 107
  4 neighbor lists, perpetual/occasional/extra = 4 0 0
  (1) pair eam/alloy, perpetual
      attributes: half, newton on
      pair build: half/bin/atomonly/newton
      stencil: half/bin/3d/newton
      bin: standard
  (2) pair zbl, perpetual, skip from (1)
      attributes: half, newton on
      pair build: skip
      stencil: none
      bin: none
  (3) pair zbl, perpetual, skip from (1)
      attributes: half, newton on
      pair build: skip
      stencil: none
      bin: none
  (4) pair zbl, perpetual, skip from (1)
      attributes: half, newton on
      pair build: skip
      stencil: none
      bin: none
Per MPI rank memory allocation (min/avg/max) = 61.37 | 62.58 | 67.77 Mbytes
Step Time Dt Temp 
  108440    69.132243        0.001    325.51987 
  108500    69.192243        0.001    325.51987 
  108600    69.292243        0.001    325.51987 
  108700    69.392243        0.001    325.51987 
  108800    69.492243        0.001    325.51987 
  108854    69.546243        0.001    325.51987 
Loop time of 151.835 on 112 procs for 414 steps with 4394000 atoms

99.5% CPU use with 112 MPI tasks x no OpenMP threads

Minimization stats:
  Stopping criterion = max force evaluations
  Energy initial, next-to-last, final = 
         -38954604.372     -39104771.6009     -39104771.6247
  Force two-norm initial, final = 3051.13 7.60069
  Force max component initial, final = 6.14924 1.04185
  Final line search alpha, max atom move = 0.0874302 0.0910889
  Iterations, force evaluations = 414 1001

MPI task timing breakdown:
Section |  min time  |  avg time  |  max time  |%varavg| %total
---------------------------------------------------------------
Pair    | 108.79     | 118        | 142.75     | 111.7 | 77.72
Neigh   | 0          | 0          | 0          |   0.0 |  0.00
Comm    | 2.7198     | 26.807     | 36.437     | 234.1 | 17.66
Output  | 0.005897   | 0.0060346  | 0.0070527  |   0.1 |  0.00
Modify  | 0.035041   | 0.083492   | 0.20634    |  14.3 |  0.05
Other   |            | 6.937      |            |       |  4.57

Nlocal:    39232.1 ave 40577 max 38045 min
Histogram: 5 2 29 6 16 23 16 6 2 7
Nghost:    25171.7 ave 26298 max 23253 min
Histogram: 6 3 2 4 8 17 29 13 23 7
Neighs:    2.468e+06 ave 2.5383e+06 max 2.37642e+06 min
Histogram: 2 5 6 15 15 17 15 16 11 10

Total # of neighbors = 276415846
Ave neighs/atom = 62.9076
Neighbor list builds = 0
Dangerous builds = 0
dump            1 all custom 1 dump/${env_temp}K_${E_PKA}KeV_[${d_x}${d_y}${d_z}]_${random}/lammps_iv_last.dump id type x y z c_2[1]
dump            1 all custom 1 dump/300K_${E_PKA}KeV_[${d_x}${d_y}${d_z}]_${random}/lammps_iv_last.dump id type x y z c_2[1]
dump            1 all custom 1 dump/300K_150KeV_[${d_x}${d_y}${d_z}]_${random}/lammps_iv_last.dump id type x y z c_2[1]
dump            1 all custom 1 dump/300K_150KeV_[0${d_y}${d_z}]_${random}/lammps_iv_last.dump id type x y z c_2[1]
dump            1 all custom 1 dump/300K_150KeV_[00${d_z}]_${random}/lammps_iv_last.dump id type x y z c_2[1]
dump            1 all custom 1 dump/300K_150KeV_[00-1]_${random}/lammps_iv_last.dump id type x y z c_2[1]
dump            1 all custom 1 dump/300K_150KeV_[00-1]_1/lammps_iv_last.dump id type x y z c_2[1]
dump_modify     1 thresh c_2[1] != 1
dump            2 all custom 1 dump/${env_temp}K_${E_PKA}KeV_[${d_x}${d_y}${d_z}]_${random}/lammps_2i_last.dump id type x y z
dump            2 all custom 1 dump/300K_${E_PKA}KeV_[${d_x}${d_y}${d_z}]_${random}/lammps_2i_last.dump id type x y z
dump            2 all custom 1 dump/300K_150KeV_[${d_x}${d_y}${d_z}]_${random}/lammps_2i_last.dump id type x y z
dump            2 all custom 1 dump/300K_150KeV_[0${d_y}${d_z}]_${random}/lammps_2i_last.dump id type x y z
dump            2 all custom 1 dump/300K_150KeV_[00${d_z}]_${random}/lammps_2i_last.dump id type x y z
dump            2 all custom 1 dump/300K_150KeV_[00-1]_${random}/lammps_2i_last.dump id type x y z
dump            2 all custom 1 dump/300K_150KeV_[00-1]_1/lammps_2i_last.dump id type x y z
dump_modify     2 thresh c_2[2] > 1
dump            3 all custom 1 dump/${env_temp}K_${E_PKA}KeV_[${d_x}${d_y}${d_z}]_${random}/high_pe_last.dump id type x y z c_1
dump            3 all custom 1 dump/300K_${E_PKA}KeV_[${d_x}${d_y}${d_z}]_${random}/high_pe_last.dump id type x y z c_1
dump            3 all custom 1 dump/300K_150KeV_[${d_x}${d_y}${d_z}]_${random}/high_pe_last.dump id type x y z c_1
dump            3 all custom 1 dump/300K_150KeV_[0${d_y}${d_z}]_${random}/high_pe_last.dump id type x y z c_1
dump            3 all custom 1 dump/300K_150KeV_[00${d_z}]_${random}/high_pe_last.dump id type x y z c_1
dump            3 all custom 1 dump/300K_150KeV_[00-1]_${random}/high_pe_last.dump id type x y z c_1
dump            3 all custom 1 dump/300K_150KeV_[00-1]_1/high_pe_last.dump id type x y z c_1
dump_modify     3 thresh c_1 > -8.6
dump            4 all custom 1 dump/${env_temp}K_${E_PKA}KeV_[${d_x}${d_y}${d_z}]_${random}/all_last.dump id type x y z c_1 c_2[1] c_2[2]
dump            4 all custom 1 dump/300K_${E_PKA}KeV_[${d_x}${d_y}${d_z}]_${random}/all_last.dump id type x y z c_1 c_2[1] c_2[2]
dump            4 all custom 1 dump/300K_150KeV_[${d_x}${d_y}${d_z}]_${random}/all_last.dump id type x y z c_1 c_2[1] c_2[2]
dump            4 all custom 1 dump/300K_150KeV_[0${d_y}${d_z}]_${random}/all_last.dump id type x y z c_1 c_2[1] c_2[2]
dump            4 all custom 1 dump/300K_150KeV_[00${d_z}]_${random}/all_last.dump id type x y z c_1 c_2[1] c_2[2]
dump            4 all custom 1 dump/300K_150KeV_[00-1]_${random}/all_last.dump id type x y z c_1 c_2[1] c_2[2]
dump            4 all custom 1 dump/300K_150KeV_[00-1]_1/all_last.dump id type x y z c_1 c_2[1] c_2[2]
run             0
Neighbor list info ...
  update every 1 steps, delay 10 steps, check yes
  max neighbors/atom: 2000, page size: 100000
  master list distance cutoff = 7.7
  ghost atom cutoff = 7.7
  binsize = 3.85, bins = 107 107 107
  4 neighbor lists, perpetual/occasional/extra = 4 0 0
  (1) pair eam/alloy, perpetual
      attributes: half, newton on
      pair build: half/bin/atomonly/newton
      stencil: half/bin/3d/newton
      bin: standard
  (2) pair zbl, perpetual, skip from (1)
      attributes: half, newton on
      pair build: skip
      stencil: none
      bin: none
  (3) pair zbl, perpetual, skip from (1)
      attributes: half, newton on
      pair build: skip
      stencil: none
      bin: none
  (4) pair zbl, perpetual, skip from (1)
      attributes: half, newton on
      pair build: skip
      stencil: none
      bin: none
Per MPI rank memory allocation (min/avg/max) = 66.93 | 68.49 | 73.21 Mbytes
Step Time Dt Temp 
  108854    69.132243        0.001    325.51987 
Loop time of 5.19007e-05 on 112 procs for 0 steps with 4394000 atoms

102.3% CPU use with 112 MPI tasks x no OpenMP threads

MPI task timing breakdown:
Section |  min time  |  avg time  |  max time  |%varavg| %total
---------------------------------------------------------------
Pair    | 0          | 0          | 0          |   0.0 |  0.00
Neigh   | 0          | 0          | 0          |   0.0 |  0.00
Comm    | 0          | 0          | 0          |   0.0 |  0.00
Output  | 0          | 0          | 0          |   0.0 |  0.00
Modify  | 0          | 0          | 0          |   0.0 |  0.00
Other   |            | 5.19e-05   |            |       |100.00

Nlocal:    39232.1 ave 40873 max 37960 min
Histogram: 4 18 7 29 15 19 5 9 3 3
Nghost:    25113.8 ave 26383 max 23470 min
Histogram: 3 3 9 5 19 15 28 8 18 4
Neighs:    2.6651e+06 ave 2.75796e+06 max 2.58392e+06 min
Histogram: 6 9 15 11 24 13 14 10 6 4

Total # of neighbors = 298491090
Ave neighs/atom = 67.9315
Neighbor list builds = 0
Dangerous builds = 0
undump          4
undump          3
undump          2
undump          1

print           "${env_temp}K_${E_PKA}KeV_[${d_x}${d_y}${d_z}]_${random}" append folder_name.csv
300K_150KeV_[00-1]_1

# next
clear
next            random
jump            SELF loop_random               #  random number
next            d_x
next            d_y
next            d_z
next            angle
jump            SELF loop_angle           # angle loop
next            E_PKA
jump            SELF loop_E_PKA            # energy loop
next            env_temp
jump            SELF loop_env_temp           # temp loop


# end
print           "Program End!"
Program End!
Total wall time: 4:27:42
